NAME : n40w120.005.350.tour
COMMENT : Length = 350
COMMENT : Found by LKH [Keld Helsgaun] Tue May  2 05:19:04 2017
TYPE : TOUR
DIMENSION : 41
TOUR_SECTION
1
6
39
29
22
25
13
27
35
33
3
28
14
4
12
15
30
18
37
19
7
5
20
17
34
9
38
21
26
23
24
10
2
8
31
40
16
11
36
32
41
-1
EOF
